NAME : bier127.tsp
TYPE : TOUR
DIMENSION : 127
TOUR_LENGTH : 121296.90874295561
TOUR_SECTION
1
16
2
51
50
13
115
100
58
64
113
65
99
92
89
125
104
110
85
86
87
88
109
96
119
63
102
101
83
82
126
81
84
117
78
76
75
69
70
71
68
74
73
67
59
62
91
61
60
116
90
3
10
120
7
105
114
11
9
8
72
19
23
24
6
106
15
108
20
4
22
17
21
18
77
79
80
27
31
12
14
41
36
37
35
44
103
45
54
57
121
56
5
52
124
66
55
47
49
53
48
118
46
94
112
111
107
127
93
95
123
97
98
32
29
28
122
33
25
26
38
39
42
34
30
43
40
-1
